(set-logic QF_S)
(declare-fun var0 () String)
(assert (str.in.re var0 (re.++ (re.+ (re.* (re.union (re.union (re.union (re.+ (re.union (re.* (re.* (re.+ (re.* (re.* (re.union (str.to.re "0") (str.to.re "11"))))))) (re.* (re.+ (re.* (re.+ (re.union (re.union (str.to.re "2") (str.to.re "3")) (re.union (str.to.re "444") (str.to.re "55"))))))))) (re.+ (re.+ (re.* (re.+ (re.* (re.union (re.union (re.+ (str.to.re "6")) (re.+ (str.to.re "77"))) (re.union (re.* (str.to.re "888")) (re.* (str.to.re "999")))))))))) (re.union (re.union (re.union (re.union (re.union (re.* (re.* (re.+ (re.* (str.to.re "a"))))) (re.* (re.* (re.union (re.+ (str.to.re "b")) (re.+ (str.to.re "c")))))) (re.union (re.+ (re.union (re.union (re.+ (str.to.re "dd")) (re.+ (str.to.re "ee"))) (re.union (re.union (str.to.re "f") (str.to.re "ggg")) (re.union (str.to.re "hh") (str.to.re "i"))))) (re.+ (re.+ (re.+ (re.+ (str.to.re "j"))))))) (re.union (re.* (re.union (re.union (re.* (re.* (str.to.re "k"))) (re.* (re.* (str.to.re "lll")))) (re.union (re.union (re.* (str.to.re "mm")) (re.* (str.to.re "nnn"))) (re.union (re.+ (str.to.re "o")) (re.+ (str.to.re "ppp")))))) (re.* (re.+ (re.* (re.union (re.* (str.to.re "qqq")) (re.* (str.to.re "rr")))))))) (re.union (re.* (re.* (re.+ (re.* (re.* (re.union (str.to.re "sss") (str.to.re "tt"))))))) (re.* (re.+ (re.* (re.union (re.* (re.union (str.to.re "uu") (str.to.re "vv"))) (re.* (re.* (str.to.re "www"))))))))) (re.union (re.* (re.* (re.union (re.union (re.* (re.* (re.union (str.to.re "x") (str.to.re "y")))) (re.* (re.+ (re.+ (str.to.re "zz"))))) (re.union (re.union (re.union (re.* (str.to.re "AAA")) (re.* (str.to.re "BBB"))) (re.union (re.+ (str.to.re "CC")) (re.+ (str.to.re "DDD")))) (re.union (re.union (re.union (str.to.re "E") (str.to.re "FFF")) (re.union (str.to.re "GGG") (str.to.re "HHH"))) (re.union (re.+ (str.to.re "III")) (re.+ (str.to.re "J")))))))) (re.* (re.* (re.+ (re.union (re.+ (re.union (re.union (str.to.re "KK") (str.to.re "L")) (re.union (str.to.re "MM") (str.to.re "N")))) (re.+ (re.* (re.* (str.to.re "OO"))))))))))) (re.union (re.union (re.union (re.union (re.+ (re.union (re.* (re.union (re.union (re.union (str.to.re "PPP") (str.to.re "QQQ")) (re.union (str.to.re "RR") (str.to.re "SS"))) (re.union (re.+ (str.to.re "TT")) (re.+ (str.to.re "UU"))))) (re.* (re.union (re.* (re.* (str.to.re "VV"))) (re.* (re.union (str.to.re "W") (str.to.re "XXX"))))))) (re.+ (re.+ (re.+ (re.* (re.union (re.+ (str.to.re "YY")) (re.+ (str.to.re "ZZZ")))))))) (re.union (re.union (re.+ (re.+ (re.+ (re.* (re.* (str.to.re "!!!")))))) (re.+ (re.union (re.+ (re.* (re.* (str.to.re """")))) (re.+ (re.union (re.* (str.to.re "##")) (re.* (str.to.re "$$"))))))) (re.union (re.union (re.* (re.union (re.union (re.* (str.to.re "%%%")) (re.* (str.to.re "&&&"))) (re.union (re.+ (str.to.re "'")) (re.+ (str.to.re "((("))))) (re.* (re.+ (re.* (re.* (str.to.re "))")))))) (re.union (re.* (re.* (re.+ (re.union (str.to.re "*") (str.to.re "+"))))) (re.* (re.+ (re.+ (re.* (str.to.re ",,,"))))))))) (re.union (re.+ (re.union (re.union (re.union (re.union (re.+ (re.union (str.to.re "--") (str.to.re "."))) (re.+ (re.union (str.to.re "//") (str.to.re "::")))) (re.union (re.* (re.+ (str.to.re ";"))) (re.* (re.union (str.to.re "<<<") (str.to.re "="))))) (re.union (re.union (re.union (re.* (str.to.re ">>>")) (re.* (str.to.re "???"))) (re.union (re.* (str.to.re "@@")) (re.* (str.to.re "[[[")))) (re.union (re.+ (re.union (str.to.re "\\\\") (str.to.re "]]"))) (re.+ (re.+ (str.to.re "^^^")))))) (re.union (re.+ (re.union (re.union (re.union (str.to.re "___") (str.to.re "``")) (re.union (str.to.re "{") (str.to.re "|"))) (re.union (re.union (str.to.re "}}}") (str.to.re "~~~")) (re.union (str.to.re "000") (str.to.re "111"))))) (re.+ (re.union (re.union (re.+ (str.to.re "222")) (re.+ (str.to.re "333"))) (re.union (re.+ (str.to.re "44")) (re.+ (str.to.re "55")))))))) (re.+ (re.+ (re.* (re.* (re.+ (re.+ (re.union (str.to.re "666") (str.to.re "77")))))))))) (re.union (re.union (re.+ (re.* (re.union (re.+ (re.+ (re.union (re.union (str.to.re "88") (str.to.re "9")) (re.union (str.to.re "aa") (str.to.re "bb"))))) (re.+ (re.* (re.+ (re.+ (str.to.re "c")))))))) (re.+ (re.union (re.union (re.* (re.+ (re.union (re.* (str.to.re "dd")) (re.* (str.to.re "ee"))))) (re.* (re.+ (re.+ (re.* (str.to.re "fff")))))) (re.union (re.union (re.* (re.* (re.* (str.to.re "gg")))) (re.* (re.+ (re.union (str.to.re "hh") (str.to.re "iii"))))) (re.union (re.+ (re.* (re.* (str.to.re "jjj")))) (re.+ (re.* (re.union (str.to.re "kk") (str.to.re "l"))))))))) (re.union (re.union (re.+ (re.* (re.* (re.* (re.* (re.* (str.to.re "mm"))))))) (re.+ (re.+ (re.* (re.* (re.+ (re.* (str.to.re "nnn")))))))) (re.union (re.+ (re.+ (re.+ (re.+ (re.+ (re.union (str.to.re "ooo") (str.to.re "p"))))))) (re.+ (re.union (re.+ (re.* (re.union (re.union (str.to.re "qqq") (str.to.re "rrr")) (re.union (str.to.re "sss") (str.to.re "ttt"))))) (re.+ (re.* (re.union (re.* (str.to.re "uuu")) (re.* (str.to.re "vvv")))))))))))))) (re.+ (re.+ (re.+ (re.union (re.union (re.union (re.+ (re.+ (re.union (re.union (re.union (re.+ (re.union (str.to.re "w") (str.to.re "xxx"))) (re.+ (re.+ (str.to.re "yy")))) (re.union (re.* (re.* (str.to.re "zz"))) (re.* (re.union (str.to.re "A") (str.to.re "BBB"))))) (re.union (re.* (re.union (re.+ (str.to.re "C")) (re.+ (str.to.re "DDD")))) (re.* (re.union (re.+ (str.to.re "EEE")) (re.+ (str.to.re "FFF")))))))) (re.+ (re.+ (re.union (re.* (re.* (re.* (re.+ (str.to.re "GG"))))) (re.* (re.* (re.+ (re.+ (str.to.re "H"))))))))) (re.union (re.* (re.+ (re.union (re.union (re.union (re.* (re.* (str.to.re "II"))) (re.* (re.union (str.to.re "JJ") (str.to.re "KK")))) (re.union (re.union (re.+ (str.to.re "LL")) (re.+ (str.to.re "MM"))) (re.union (re.+ (str.to.re "NN")) (re.+ (str.to.re "OO"))))) (re.union (re.union (re.* (re.+ (str.to.re "PP"))) (re.* (re.union (str.to.re "QQQ") (str.to.re "RR")))) (re.union (re.* (re.union (str.to.re "S") (str.to.re "TT"))) (re.* (re.+ (str.to.re "UU")))))))) (re.* (re.+ (re.* (re.union (re.* (re.union (re.union (str.to.re "V") (str.to.re "WWW")) (re.union (str.to.re "X") (str.to.re "YY")))) (re.* (re.+ (re.union (str.to.re "ZZ") (str.to.re "!!")))))))))) (re.union (re.union (re.* (re.* (re.* (re.union (re.union (re.+ (re.union (str.to.re """""") (str.to.re "#"))) (re.+ (re.* (str.to.re "$$")))) (re.union (re.* (re.* (str.to.re "%%%"))) (re.* (re.* (str.to.re "&")))))))) (re.* (re.* (re.+ (re.* (re.+ (re.+ (re.union (str.to.re "'''") (str.to.re "((("))))))))) (re.union (re.* (re.* (re.+ (re.* (re.+ (re.* (re.+ (str.to.re "))")))))))) (re.* (re.* (re.union (re.+ (re.+ (re.+ (re.+ (str.to.re "**"))))) (re.+ (re.union (re.+ (re.union (str.to.re "+++") (str.to.re ",,"))) (re.+ (re.union (str.to.re "---") (str.to.re "...")))))))))))))))))
(assert (<= 15 (str.len var0)))
(check-sat)